certificates/rado_a9_c231_N27.cnf
c Rad2 upper bound instance: x1 + 9*x2 - x3 = 231, interval [1,27]
p cnf 27 148
1 4 26 0
-1 -4 -26 0
1 13 27 0
-1 -13 -27 0
2 5 26 0
-2 -5 -26 0
2 14 27 0
-2 -14 -27 0
3 6 26 0
-3 -6 -26 0
3 15 27 0
-3 -15 -27 0
4 7 26 0
-4 -7 -26 0
4 16 27 0
-4 -16 -27 0
5 8 26 0
-5 -8 -26 0
5 17 27 0
-5 -17 -27 0
6 9 26 0
-6 -9 -26 0
6 18 27 0
-6 -18 -27 0
1 7 25 0
-1 -7 -25 0
7 10 26 0
-7 -10 -26 0
7 19 27 0
-7 -19 -27 0
2 8 25 0
-2 -8 -25 0
8 11 26 0
-8 -11 -26 0
8 20 27 0
-8 -20 -27 0
3 9 25 0
-3 -9 -25 0
9 12 26 0
-9 -12 -26 0
9 21 27 0
-9 -21 -27 0
4 10 25 0
-4 -10 -25 0
10 13 26 0
-10 -13 -26 0
10 22 27 0
-10 -22 -27 0
5 11 25 0
-5 -11 -25 0
11 14 26 0
-11 -14 -26 0
11 23 27 0
-11 -23 -27 0
6 12 25 0
-6 -12 -25 0
12 15 26 0
-12 -15 -26 0
12 24 27 0
-12 -24 -27 0
7 13 25 0
-7 -13 -25 0
13 16 26 0
-13 -16 -26 0
13 25 27 0
-13 -25 -27 0
8 14 25 0
-8 -14 -25 0
14 17 26 0
-14 -17 -26 0
14 26 27 0
-14 -26 -27 0
9 15 25 0
-9 -15 -25 0
15 18 26 0
-15 -18 -26 0
15 27 0
-15 -27 0
1 16 24 0
-1 -16 -24 0
10 16 25 0
-10 -16 -25 0
16 19 26 0
-16 -19 -26 0
2 17 24 0
-2 -17 -24 0
11 17 25 0
-11 -17 -25 0
17 20 26 0
-17 -20 -26 0
3 18 24 0
-3 -18 -24 0
12 18 25 0
-12 -18 -25 0
18 21 26 0
-18 -21 -26 0
4 19 24 0
-4 -19 -24 0
13 19 25 0
-13 -19 -25 0
19 22 26 0
-19 -22 -26 0
5 20 24 0
-5 -20 -24 0
14 20 25 0
-14 -20 -25 0
20 23 26 0
-20 -23 -26 0
6 21 24 0
-6 -21 -24 0
15 21 25 0
-15 -21 -25 0
21 24 26 0
-21 -24 -26 0
7 22 24 0
-7 -22 -24 0
16 22 25 0
-16 -22 -25 0
22 25 26 0
-22 -25 -26 0
8 23 24 0
-8 -23 -24 0
17 23 25 0
-17 -23 -25 0
23 26 0
-23 -26 0
9 24 0
-9 -24 0
18 24 25 0
-18 -24 -25 0
24 26 27 0
-24 -26 -27 0
1 23 25 0
-1 -23 -25 0
10 24 25 0
-10 -24 -25 0
19 25 0
-19 -25 0
2 23 26 0
-2 -23 -26 0
11 24 26 0
-11 -24 -26 0
20 25 26 0
-20 -25 -26 0
3 23 27 0
-3 -23 -27 0
21 25 27 0
-21 -25 -27 0
