certificates/rado_a9_c231_N27.drat
-26 -27 0
d -24 -26 -27 0
-27 0
15 0
26 0
-23 0
-12 0
-18 0
3 0
11 0
24 0
6 0
25 0
0
